(set-logic HORN)
(declare-fun _strcmp@summary ((Array Int Int) Int (Array Int Int) Int Int Bool ) Bool)
(declare-fun _strcmp@pre ((Array Int Int) Int (Array Int Int) Int Int ) Bool)
(declare-fun !inv0 ((Array Int Int) Int (Array Int Int) Int Int Int ) Bool)
(assert (forall ((src@0 (Array Int Int))(dst@0 (Array Int Int))(.src!size@0 Int)(.dst!size@0 Int)(N@0 Int)(i@0 Int)) (=> (and (= |i@0| 0) (_strcmp@pre |src@0| |.src!size@0| |dst@0| |.dst!size@0| |N@0|)) (!inv0 |src@0| |.src!size@0| |dst@0| |.dst!size@0| |N@0| |i@0|))))
(assert (forall ((src@0 (Array Int Int))(.src!size@0 Int)(dst@0 (Array Int Int))(.dst!size@0 Int)(N@0 Int)(i@0 Int)(!return@0 Bool)) (=> (and (!inv0 |src@0| |.src!size@0| |dst@0| |.dst!size@0| |N@0| |i@0|) (< |i@0| |N@0|) (not (= (select |dst@0| |i@0|) (select |src@0| |i@0|))) (= |!return@0| true)) (_strcmp@summary |src@0| |.src!size@0| |dst@0| |.dst!size@0| |N@0| |!return@0|))))
(assert (forall ((N@0 Int)(a@0 (Array Int Int))(b@0 (Array Int Int))) (=> (> |N@0| 0) (_strcmp@pre |a@0| |N@0| |b@0| |N@0| |N@0|))))
(assert (forall ((src@0 (Array Int Int))(.src!size@0 Int)(dst@0 (Array Int Int))(.dst!size@0 Int)(N@0 Int)(i@0 Int)(!return@0 Bool)) (=> (and (!inv0 |src@0| |.src!size@0| |dst@0| |.dst!size@0| |N@0| |i@0|) (not (< |i@0| |N@0|)) (= |!return@0| false)) (_strcmp@summary |src@0| |.src!size@0| |dst@0| |.dst!size@0| |N@0| |!return@0|))))
(assert (forall ((N@0 Int)(a@0 (Array Int Int))(b@0 (Array Int Int))(c@0 Bool)(!rtrnd0 Bool)) (=> (and (_strcmp@summary |a@0| |N@0| |b@0| |N@0| |N@0| !rtrnd0) (_strcmp@pre |a@0| |N@0| |b@0| |N@0| |N@0|) (> |N@0| 0) (= |c@0| !rtrnd0) (not |c@0|) (not (forall ((x@0 Int)) (=> (and (<= 0 |x@0|) (< |x@0| |N@0|)) (= (select |a@0| |x@0|) (select |b@0| |x@0|)))))) false)))
(assert (forall ((src@0 (Array Int Int))(.src!size@0 Int)(dst@0 (Array Int Int))(.dst!size@0 Int)(N@0 Int)(i@0 Int)(i@1 Int)) (=> (and (!inv0 |src@0| |.src!size@0| |dst@0| |.dst!size@0| |N@0| |i@0|) (= |i@1| (+ |i@0| 1)) (< |i@0| |N@0|) (not (not (= (select |dst@0| |i@0|) (select |src@0| |i@0|))))) (!inv0 |src@0| |.src!size@0| |dst@0| |.dst!size@0| |N@0| |i@1|))))
(check-sat)